NAME : kroC100-C-3-1-a__scheduled_bias_same_priority_ls20__23758.tour
COMMENT : Length = 23758.000
COMMENT : Generated by evaluate_ctspd.py for scheduled_bias_same_priority_ls20
TYPE : TOUR
DIMENSION : 100
TOUR_SECTION
81
97
96
87
52
11
84
48
66
44
63
51
16
37
29
18
49
93
99
19
92
10
14
57
36
45
33
100
74
69
60
4
12
40
85
53
1
46
24
32
7
82
78
9
26
61
27
15
79
13
65
31
67
64
20
42
55
47
6
54
75
22
8
17
25
90
34
58
98
88
28
39
38
71
72
83
62
50
56
43
5
86
95
94
91
76
70
21
23
68
35
2
80
77
30
89
41
59
3
73
-1
EOF
